graphs/queen6_6.col
p edge 36 290
e 1 2
e 1 3
e 1 4
e 1 5
e 1 6
e 1 7
e 1 8
e 1 13
e 1 15
e 1 19
e 1 22
e 1 25
e 1 29
e 1 31
e 1 36
e 2 3
e 2 4
e 2 5
e 2 6
e 2 7
e 2 8
e 2 9
e 2 14
e 2 16
e 2 20
e 2 23
e 2 26
e 2 30
e 2 32
e 3 4
e 3 5
e 3 6
e 3 8
e 3 9
e 3 10
e 3 13
e 3 15
e 3 17
e 3 21
e 3 24
e 3 27
e 3 33
e 4 5
e 4 6
e 4 9
e 4 10
e 4 11
e 4 14
e 4 16
e 4 18
e 4 19
e 4 22
e 4 28
e 4 34
e 5 6
e 5 10
e 5 11
e 5 12
e 5 15
e 5 17
e 5 20
e 5 23
e 5 25
e 5 29
e 5 35
e 6 11
e 6 12
e 6 16
e 6 18
e 6 21
e 6 24
e 6 26
e 6 30
e 6 31
e 6 36
e 7 8
e 7 9
e 7 10
e 7 11
e 7 12
e 7 13
e 7 14
e 7 19
e 7 21
e 7 25
e 7 28
e 7 31
e 7 35
e 8 9
e 8 10
e 8 11
e 8 12
e 8 13
e 8 14
e 8 15
e 8 20
e 8 22
e 8 26
e 8 29
e 8 32
e 8 36
e 9 10
e 9 11
e 9 12
e 9 14
e 9 15
e 9 16
e 9 19
e 9 21
e 9 23
e 9 27
e 9 30
e 9 33
e 10 11
e 10 12
e 10 15
e 10 16
e 10 17
e 10 20
e 10 22
e 10 24
e 10 25
e 10 28
e 10 34
e 11 12
e 11 16
e 11 17
e 11 18
e 11 21
e 11 23
e 11 26
e 11 29
e 11 31
e 11 35
e 12 17
e 12 18
e 12 22
e 12 24
e 12 27
e 12 30
e 12 32
e 12 36
e 13 14
e 13 15
e 13 16
e 13 17
e 13 18
e 13 19
e 13 20
e 13 25
e 13 27
e 13 31
e 13 34
e 14 15
e 14 16
e 14 17
e 14 18
e 14 19
e 14 20
e 14 21
e 14 26
e 14 28
e 14 32
e 14 35
e 15 16
e 15 17
e 15 18
e 15 20
e 15 21
e 15 22
e 15 25
e 15 27
e 15 29
e 15 33
e 15 36
e 16 17
e 16 18
e 16 21
e 16 22
e 16 23
e 16 26
e 16 28
e 16 30
e 16 31
e 16 34
e 17 18
e 17 22
e 17 23
e 17 24
e 17 27
e 17 29
e 17 32
e 17 35
e 18 23
e 18 24
e 18 28
e 18 30
e 18 33
e 18 36
e 19 20
e 19 21
e 19 22
e 19 23
e 19 24
e 19 25
e 19 26
e 19 31
e 19 33
e 20 21
e 20 22
e 20 23
e 20 24
e 20 25
e 20 26
e 20 27
e 20 32
e 20 34
e 21 22
e 21 23
e 21 24
e 21 26
e 21 27
e 21 28
e 21 31
e 21 33
e 21 35
e 22 23
e 22 24
e 22 27
e 22 28
e 22 29
e 22 32
e 22 34
e 22 36
e 23 24
e 23 28
e 23 29
e 23 30
e 23 33
e 23 35
e 24 29
e 24 30
e 24 34
e 24 36
e 25 26
e 25 27
e 25 28
e 25 29
e 25 30
e 25 31
e 25 32
e 26 27
e 26 28
e 26 29
e 26 30
e 26 31
e 26 32
e 26 33
e 27 28
e 27 29
e 27 30
e 27 32
e 27 33
e 27 34
e 28 29
e 28 30
e 28 33
e 28 34
e 28 35
e 29 30
e 29 34
e 29 35
e 29 36
e 30 35
e 30 36
e 31 32
e 31 33
e 31 34
e 31 35
e 31 36
e 32 33
e 32 34
e 32 35
e 32 36
e 33 34
e 33 35
e 33 36
e 34 35
e 34 36
e 35 36
